p cnf 36 95
a 26 7 0
e 1 2 3 4 5 6 8 9 10 11 12 13 14 15 16 17 18 19 20 21 22 23 24 25 27 28 29 30 31 32 33 34 35 36 0
-3 1 0
-3 -2 0
-1 2 3 0
4 3 0
4 2 0
-3 -2 -4 0
6 -4 0
6 5 0
4 -5 -6 0
-8 -6 0
-8 7 0
6 -7 8 0
-5 9 -10 0
5 -9 -10 0
-5 -9 10 0
5 9 10 0
12 -10 0
12 -11 0
10 11 -12 0
-14 -7 0
-14 13 0
7 -13 14 0
-15 -9 0
-15 2 0
9 -2 15 0
-14 15 -16 0
14 -15 -16 0
-14 -15 16 0
14 15 16 0
12 16 -17 0
-12 -16 -17 0
12 -16 17 0
-12 16 17 0
18 8 0
18 -17 0
-8 17 -18 0
19 -15 0
19 7 0
15 -7 -19 0
-19 20 -21 0
19 -20 -21 0
-19 -20 21 0
19 20 21 0
-24 -22 0
-24 -23 0
22 23 24 0
25 21 0
25 24 0
-21 -24 -25 0
26 18 0
26 25 0
-18 -25 -26 0
-27 -1 0
-27 15 0
1 -15 27 0
-4 27 -28 0
4 -27 -28 0
-4 -27 28 0
4 27 28 0
-29 9 0
-29 15 0
-9 -15 29 0
30 28 0
30 29 0
-28 -29 -30 0
-30 -5 -31 0
30 5 -31 0
-30 5 31 0
30 -5 31 0
-32 -5 0
-32 9 0
5 -9 32 0
-33 -32 0
-33 23 0
32 -23 33 0
-34 20 0
-34 33 0
-20 -33 34 0
35 -31 0
35 -34 0
31 34 -35 0
26 -35 -36 0
-26 35 -36 0
26 35 36 0
-26 -35 36 0
-35 -32 -1 -7 22 29 0
5 28 -7 25 -23 -24 0
35 15 18 -8 0
1 -28 35 0
35 24 -33 0
-26 -10 13 15 -24 0
-12 2 36 -15 19 20 0
36 22 -25 32 21 31 -8 0
18 32 9 10 -25 -21 0
36 0
